c   #vars: 36   #clauses: 167   #literals: 505
c 
p cnf 36 167
7 -23 25 26 0
-2 -3 0
1 -18 34 35 0
6 16 17 -34 0
-13 16 17 33 0
-8 -9 0
-10 -11 0
-14 19 20 36 0
7 23 24 -25 0
-12 -13 0
-14 -15 0
14 15 -19 36 0
-16 -17 0
5 23 24 -27 0
-19 -20 0
-21 -22 0
-23 -24 0
-25 -26 0
-27 -28 0
-29 -30 0
8 9 31 32 0
-31 -32 0
1 18 -28 -34 0
7 -23 27 28 0
2 3 12 13 0
6 -17 33 -34 0
4 -22 27 28 0
-34 -35 0
5 -21 27 28 0
7 -21 25 26 0
-1 -13 0
7 25 26 -27 0
7 21 22 -27 0
5 -21 23 24 0
23 24 31 32 0
5 -23 -24 -27 0
6 -33 34 35 0
7 21 22 -25 0
-1 -35 0
-2 -12 0
-3 -13 0
-2 -14 0
-3 -15 0
10 11 34 35 0
-2 -19 0
-3 -20 0
-2 -29 0
-3 -30 0
10 11 16 17 0
4 -14 -22 36 0
1 -12 34 35 0
4 21 22 -36 0
7 -21 27 28 0
7 21 22 -23 0
4 21 22 -28 0
-4 14 15 36 0
-4 -21 0
6 16 17 -33 0
-4 -27 0
1 18 -30 -34 0
-1 18 29 30 0
-19 -20 29 30 0
-5 -22 0
-5 -24 0
18 27 28 -30 0
-5 -28 0
7 -25 27 28 0
5 21 22 -27 0
-6 16 17 33 0
-6 -17 0
12 13 -17 33 0
1 -12 18 -30 0
-6 12 13 33 0
-6 -35 0
12 13 34 35 0
4 -19 -28 36 0
-7 -22 0
4 -19 -22 36 0
-7 -24 0
-19 -30 -34 -35 0
-29 -30 -34 -35 0
-7 -26 0
-20 -29 -34 -35 0
-7 -28 0
5 -23 -24 0
10 11 31 32 0
-8 -14 0
-9 -15 0
-8 -16 0
-9 -17 0
10 11 19 20 0
-8 -23 0
-9 -24 0
6 -13 33 -34 0
-8 -25 0
-9 -26 0
12 13 31 32 0
-8 -29 0
-9 -30 0
8 9 29 30 0
-8 -31 0
-9 -32 0
-10 -14 0
-11 -15 0
19 20 25 26 0
-10 -16 0
-11 -17 0
-10 -19 0
-11 -20 0
8 9 16 17 0
-10 -31 0
-11 -32 0
14 15 31 32 0
6 -13 -16 33 0
19 20 -29 -30 0
10 11 14 15 0
-10 -34 0
-11 -35 0
23 24 25 26 0
7 -21 23 24 0
-1 18 27 28 0
-19 -20 -34 -35 0
2 3 29 30 0
8 9 14 15 0
21 22 27 28 0
-12 -31 0
-13 -32 0
-12 -33 0
1 -12 18 -28 0
6 -16 -17 33 0
-12 -34 0
-13 -35 0
8 9 25 26 0
-14 -31 0
-15 -32 0
8 9 23 24 0
-14 -34 0
-15 -35 0
-15 -36 0
16 17 29 30 0
4 -14 -28 36 0
2 3 19 20 0
-16 -29 0
-17 -30 0
-16 -33 0
18 -28 29 30 0
14 15 34 35 0
-18 -27 0
-4 19 20 36 0
-18 -29 0
6 -16 34 35 0
2 3 14 15 0
-19 -25 0
-20 -26 0
1 12 13 -18 0
-20 -36 0
-21 -27 0
-22 -28 0
5 -23 27 28 0
-23 -25 0
-24 -26 0
4 27 28 -36 0
-23 -31 0
-24 -32 0
1 12 13 -34 0
7 23 24 -27 0
5 21 22 -23 0
